p cnf 314 843
e 1 2 3 4 5 6 7 0
a 8 9 10 11 14 0
e 12 13 15 16 17 18 19 20 21 22 23 24 25 0
a 26 27 28 29 30 0
e 31 32 33 0
a 34 35 36 37 0
e 38 39 40 41 42 43 44 45 0
e 46 47 48 49 50 51 52 53 54 55 56 57 58 59 60 61 62 63 64 65 66 67 68 69 70 71 72 73 74 75 76 77 78 79 80 81 82 83 84 85 86 87 88 89 90 91 92 93 94 95 96 97 98 99 100 101 102 103 104 105 106 107 108 109 110 111 112 113 114 115 116 117 118 119 120 121 122 123 124 125 126 127 128 129 130 131 132 133 134 135 136 137 138 139 140 141 142 143 144 145 146 147 148 149 150 151 152 153 154 155 156 157 158 159 160 161 162 163 164 165 166 167 168 169 170 171 172 173 174 175 176 177 178 179 180 181 182 183 184 185 186 187 188 189 190 191 192 193 194 195 196 197 198 199 200 201 202 203 204 205 206 207 208 209 210 211 212 213 214 215 216 217 218 219 220 221 222 223 224 225 226 227 228 229 230 231 232 233 234 235 236 237 238 239 240 241 242 243 244 245 246 247 248 249 250 251 252 253 254 255 256 257 258 259 260 261 262 263 264 265 266 267 268 269 270 271 272 273 274 275 276 277 278 279 280 281 282 283 284 285 286 287 288 289 290 291 292 293 294 295 296 297 298 299 300 301 302 303 304 305 306 307 308 309 310 311 312 313 314 0
38 46 0
-40 46 0
-38 40 -46 0
40 47 0
-38 47 0
-40 38 -47 0
46 -48 0
47 -48 0
-46 -47 48 0
39 49 0
-41 49 0
-39 41 -49 0
41 50 0
-39 50 0
-41 39 -50 0
49 -51 0
50 -51 0
-49 -50 51 0
48 -52 0
51 -52 0
-48 -51 52 0
2 -53 0
-3 -53 0
-2 3 53 0
2 54 0
-53 54 0
-2 53 -54 0
4 -55 0
-5 -55 0
-4 5 55 0
4 56 0
-55 56 0
-4 55 -56 0
2 57 0
-34 57 0
-2 34 -57 0
34 58 0
-2 58 0
-34 2 -58 0
57 -59 0
58 -59 0
-57 -58 59 0
3 60 0
-35 60 0
-3 35 -60 0
35 61 0
-3 61 0
-35 3 -61 0
60 -62 0
61 -62 0
-60 -61 62 0
59 -63 0
62 -63 0
-59 -62 63 0
4 64 0
-36 64 0
-4 36 -64 0
36 65 0
-4 65 0
-36 4 -65 0
64 -66 0
65 -66 0
-64 -65 66 0
5 67 0
-37 67 0
-5 37 -67 0
37 68 0
-5 68 0
-37 5 -68 0
67 -69 0
68 -69 0
-67 -68 69 0
66 -70 0
69 -70 0
-66 -69 70 0
63 -71 0
70 -71 0
-63 -70 71 0
71 72 0
38 72 0
-71 -38 -72 0
40 -73 0
-41 -73 0
-40 41 73 0
71 74 0
-73 74 0
-71 73 -74 0
-71 75 0
-52 75 0
71 52 -75 0
54 -76 0
56 -76 0
72 -76 0
74 -76 0
75 -76 0
-54 -56 -72 -74 -75 76 0
-1 77 0
-76 77 0
1 76 -77 0
-1 -78 0
77 -78 0
1 -77 78 0
40 79 0
-42 79 0
-40 42 -79 0
42 80 0
-40 80 0
-42 40 -80 0
79 -81 0
80 -81 0
-79 -80 81 0
41 82 0
-43 82 0
-41 43 -82 0
43 83 0
-41 83 0
-43 41 -83 0
82 -84 0
83 -84 0
-82 -83 84 0
81 -85 0
84 -85 0
-81 -84 85 0
8 -86 0
-9 -86 0
-8 9 86 0
8 87 0
-86 87 0
-8 86 -87 0
10 -88 0
-11 -88 0
-10 11 88 0
10 89 0
-88 89 0
-10 88 -89 0
87 -90 0
89 -90 0
-87 -89 90 0
-7 91 0
-90 91 0
7 90 -91 0
-7 -92 0
91 -92 0
7 -91 92 0
12 93 0
-92 93 0
-12 92 -93 0
92 94 0
-12 94 0
-92 12 -94 0
93 -95 0
94 -95 0
-93 -94 95 0
8 96 0
-34 96 0
-8 34 -96 0
34 97 0
-8 97 0
-34 8 -97 0
96 -98 0
97 -98 0
-96 -97 98 0
9 99 0
-35 99 0
-9 35 -99 0
35 100 0
-9 100 0
-35 9 -100 0
99 -101 0
100 -101 0
-99 -100 101 0
98 -102 0
101 -102 0
-98 -101 102 0
10 103 0
-36 103 0
-10 36 -103 0
36 104 0
-10 104 0
-36 10 -104 0
103 -105 0
104 -105 0
-103 -104 105 0
11 106 0
-37 106 0
-11 37 -106 0
37 107 0
-11 107 0
-37 11 -107 0
106 -108 0
107 -108 0
-106 -107 108 0
105 -109 0
108 -109 0
-105 -108 109 0
102 -110 0
109 -110 0
-102 -109 110 0
-40 111 0
-13 111 0
40 13 -111 0
13 112 0
40 112 0
-13 -40 -112 0
111 -113 0
112 -113 0
-111 -112 113 0
-7 114 0
110 114 0
-113 114 0
7 -110 113 -114 0
12 -115 0
13 -115 0
-12 -13 115 0
42 -116 0
43 -116 0
-42 -43 116 0
110 117 0
-116 117 0
-110 116 -117 0
-110 118 0
-85 118 0
110 85 -118 0
117 -119 0
118 -119 0
-117 -118 119 0
115 -120 0
-7 -120 0
-115 7 120 0
120 121 0
-119 121 0
-120 119 -121 0
95 -122 0
114 -122 0
121 -122 0
-7 -122 0
-95 -114 -121 7 122 0
42 123 0
-44 123 0
-42 44 -123 0
44 124 0
-42 124 0
-44 42 -124 0
123 -125 0
124 -125 0
-123 -124 125 0
43 126 0
-45 126 0
-43 45 -126 0
45 127 0
-43 127 0
-45 43 -127 0
126 -128 0
127 -128 0
-126 -127 128 0
125 -129 0
128 -129 0
-125 -128 129 0
16 -130 0
-17 -130 0
-16 17 130 0
16 131 0
-130 131 0
-16 130 -131 0
18 -132 0
-19 -132 0
-18 19 132 0
18 133 0
-132 133 0
-18 132 -133 0
16 134 0
-34 134 0
-16 34 -134 0
34 135 0
-16 135 0
-34 16 -135 0
134 -136 0
135 -136 0
-134 -135 136 0
17 137 0
-35 137 0
-17 35 -137 0
35 138 0
-17 138 0
-35 17 -138 0
137 -139 0
138 -139 0
-137 -138 139 0
136 -140 0
139 -140 0
-136 -139 140 0
18 141 0
-36 141 0
-18 36 -141 0
36 142 0
-18 142 0
-36 18 -142 0
141 -143 0
142 -143 0
-141 -142 143 0
19 144 0
-37 144 0
-19 37 -144 0
37 145 0
-19 145 0
-37 19 -145 0
144 -146 0
145 -146 0
-144 -145 146 0
143 -147 0
146 -147 0
-143 -146 147 0
140 -148 0
147 -148 0
-140 -147 148 0
148 149 0
42 149 0
-148 -42 -149 0
44 -150 0
-45 -150 0
-44 45 150 0
148 151 0
-150 151 0
-148 150 -151 0
-148 152 0
-129 152 0
148 129 -152 0
131 -153 0
133 -153 0
149 -153 0
151 -153 0
152 -153 0
-131 -133 -149 -151 -152 153 0
-15 154 0
-153 154 0
15 153 -154 0
-15 -155 0
154 -155 0
15 -154 155 0
22 156 0
-34 156 0
-22 34 -156 0
34 157 0
-22 157 0
-34 22 -157 0
156 -158 0
157 -158 0
-156 -157 158 0
23 159 0
-35 159 0
-23 35 -159 0
35 160 0
-23 160 0
-35 23 -160 0
159 -161 0
160 -161 0
-159 -160 161 0
158 -162 0
161 -162 0
-158 -161 162 0
24 163 0
-36 163 0
-24 36 -163 0
36 164 0
-24 164 0
-36 24 -164 0
163 -165 0
164 -165 0
-163 -164 165 0
25 166 0
-37 166 0
-25 37 -166 0
37 167 0
-25 167 0
-37 25 -167 0
166 -168 0
167 -168 0
-166 -167 168 0
165 -169 0
168 -169 0
-165 -168 169 0
162 -170 0
169 -170 0
-162 -169 170 0
170 171 0
-150 171 0
-170 150 -171 0
-172 0
-172 173 0
-25 173 0
172 25 -173 0
172 174 0
-25 174 0
-172 25 -174 0
25 175 0
-172 175 0
-25 172 -175 0
174 -176 0
175 -176 0
-174 -175 176 0
173 177 0
-24 177 0
-173 24 -177 0
24 178 0
-173 178 0
-24 173 -178 0
177 -179 0
178 -179 0
-177 -178 179 0
179 180 0
-36 180 0
-179 36 -180 0
36 181 0
-179 181 0
-36 179 -181 0
180 -182 0
181 -182 0
-180 -181 182 0
176 183 0
-37 183 0
-176 37 -183 0
37 184 0
-176 184 0
-37 176 -184 0
183 -185 0
184 -185 0
-183 -184 185 0
182 -186 0
185 -186 0
-182 -185 186 0
162 -187 0
186 -187 0
-162 -186 187 0
187 188 0
-150 188 0
-187 150 -188 0
22 -189 0
-23 -189 0
-22 23 189 0
22 190 0
-189 190 0
-22 189 -190 0
-24 -191 0
-25 -191 0
24 25 191 0
24 -192 0
-25 -192 0
-24 25 192 0
24 193 0
-192 193 0
-24 192 -193 0
171 -194 0
188 -194 0
190 -194 0
-191 -194 0
193 -194 0
-171 -188 -190 191 -193 194 0
-21 195 0
-194 195 0
21 194 -195 0
-172 196 0
-23 196 0
172 23 -196 0
172 197 0
-23 197 0
-172 23 -197 0
23 198 0
-172 198 0
-23 172 -198 0
197 -199 0
198 -199 0
-197 -198 199 0
196 200 0
-22 200 0
-196 22 -200 0
22 201 0
-196 201 0
-22 196 -201 0
200 -202 0
201 -202 0
-200 -201 202 0
202 203 0
-34 203 0
-202 34 -203 0
34 204 0
-202 204 0
-34 202 -204 0
203 -205 0
204 -205 0
-203 -204 205 0
199 206 0
-35 206 0
-199 35 -206 0
35 207 0
-199 207 0
-35 199 -207 0
206 -208 0
207 -208 0
-206 -207 208 0
205 -209 0
208 -209 0
-205 -208 209 0
209 -210 0
169 -210 0
-209 -169 210 0
210 211 0
-150 211 0
-210 150 -211 0
-22 -212 0
-23 -212 0
22 23 212 0
171 -213 0
211 -213 0
-212 -213 0
190 -213 0
193 -213 0
-171 -211 212 -190 -193 213 0
21 214 0
-213 214 0
-21 213 -214 0
195 -215 0
214 -215 0
-195 -214 215 0
-31 -216 0
-32 -216 0
-33 -216 0
31 32 33 216 0
26 217 0
-34 217 0
-26 34 -217 0
34 218 0
-26 218 0
-34 26 -218 0
217 -219 0
218 -219 0
-217 -218 219 0
27 220 0
-35 220 0
-27 35 -220 0
35 221 0
-27 221 0
-35 27 -221 0
220 -222 0
221 -222 0
-220 -221 222 0
219 -223 0
222 -223 0
-219 -222 223 0
28 224 0
-36 224 0
-28 36 -224 0
36 225 0
-28 225 0
-36 28 -225 0
224 -226 0
225 -226 0
-224 -225 226 0
29 227 0
-37 227 0
-29 37 -227 0
37 228 0
-29 228 0
-37 29 -228 0
227 -229 0
228 -229 0
-227 -228 229 0
226 -230 0
229 -230 0
-226 -229 230 0
223 -231 0
230 -231 0
-223 -230 231 0
-30 -232 0
216 -232 0
231 -232 0
30 -216 -231 232 0
44 -233 0
45 -233 0
-44 -45 233 0
232 234 0
233 234 0
-232 -233 -234 0
-31 -235 0
-32 -235 0
33 -235 0
31 32 -33 235 0
-172 236 0
-29 236 0
172 29 -236 0
172 237 0
-29 237 0
-172 29 -237 0
29 238 0
-172 238 0
-29 172 -238 0
237 -239 0
238 -239 0
-237 -238 239 0
236 240 0
-28 240 0
-236 28 -240 0
28 241 0
-236 241 0
-28 236 -241 0
240 -242 0
241 -242 0
-240 -241 242 0
242 243 0
-36 243 0
-242 36 -243 0
36 244 0
-242 244 0
-36 242 -244 0
243 -245 0
244 -245 0
-243 -244 245 0
239 246 0
-37 246 0
-239 37 -246 0
37 247 0
-239 247 0
-37 239 -247 0
246 -248 0
247 -248 0
-246 -247 248 0
245 -249 0
248 -249 0
-245 -248 249 0
223 -250 0
249 -250 0
-223 -249 250 0
-30 -251 0
235 -251 0
250 -251 0
30 -235 -250 251 0
251 252 0
233 252 0
-251 -233 -252 0
-31 -253 0
32 -253 0
-33 -253 0
31 -32 33 253 0
26 -254 0
-27 -254 0
-26 27 254 0
26 255 0
-254 255 0
-26 254 -255 0
-30 -256 0
255 -256 0
30 -255 256 0
256 257 0
253 257 0
-256 -253 -257 0
-31 -258 0
32 -258 0
33 -258 0
31 -32 -33 258 0
-28 -259 0
-29 -259 0
28 29 259 0
-30 -260 0
-259 -260 0
30 259 260 0
260 261 0
258 261 0
-260 -258 -261 0
31 -262 0
-32 -262 0
-33 -262 0
-31 32 33 262 0
28 -263 0
-29 -263 0
-28 29 263 0
28 264 0
-263 264 0
-28 263 -264 0
-30 -265 0
264 -265 0
30 -264 265 0
265 266 0
262 266 0
-265 -262 -266 0
30 -267 0
216 -267 0
231 -267 0
-30 -216 -231 267 0
267 268 0
233 268 0
-267 -233 -268 0
-172 269 0
-27 269 0
172 27 -269 0
172 270 0
-27 270 0
-172 27 -270 0
27 271 0
-172 271 0
-27 172 -271 0
270 -272 0
271 -272 0
-270 -271 272 0
269 273 0
-26 273 0
-269 26 -273 0
26 274 0
-269 274 0
-26 269 -274 0
273 -275 0
274 -275 0
-273 -274 275 0
275 276 0
-34 276 0
-275 34 -276 0
34 277 0
-275 277 0
-34 275 -277 0
276 -278 0
277 -278 0
-276 -277 278 0
272 279 0
-35 279 0
-272 35 -279 0
35 280 0
-272 280 0
-35 272 -280 0
279 -281 0
280 -281 0
-279 -280 281 0
278 -282 0
281 -282 0
-278 -281 282 0
282 -283 0
230 -283 0
-282 -230 283 0
30 -284 0
235 -284 0
283 -284 0
-30 -235 -283 284 0
284 285 0
233 285 0
-284 -233 -285 0
-26 -286 0
-27 -286 0
26 27 286 0
30 -287 0
-286 -287 0
-30 286 287 0
287 288 0
253 288 0
-287 -253 -288 0
30 -289 0
255 -289 0
-30 -255 289 0
289 290 0
258 290 0
-289 -258 -290 0
30 -291 0
264 -291 0
-30 -264 291 0
291 292 0
262 292 0
-291 -262 -292 0
31 293 0
-262 293 0
-31 262 -293 0
234 -294 0
252 -294 0
257 -294 0
261 -294 0
266 -294 0
268 -294 0
285 -294 0
288 -294 0
290 -294 0
292 -294 0
293 -294 0
-234 -252 -257 -261 -266 -268 -285 -288 -290 -292 -293 294 0
-1 -295 0
-7 -295 0
-15 -295 0
1 7 15 295 0
155 -296 0
215 -296 0
-155 -215 296 0
115 -297 0
-14 -297 0
-115 14 297 0
297 298 0
-296 298 0
-297 296 -298 0
115 -299 0
14 -299 0
-115 -14 299 0
129 -300 0
294 -300 0
-129 -294 300 0
299 301 0
-300 301 0
-299 300 -301 0
122 -302 0
298 -302 0
301 -302 0
-122 -298 -301 302 0
-6 303 0
-302 303 0
6 302 -303 0
40 304 0
-44 304 0
-40 44 -304 0
44 305 0
-40 305 0
-44 40 -305 0
304 -306 0
305 -306 0
-304 -305 306 0
41 307 0
-45 307 0
-41 45 -307 0
45 308 0
-41 308 0
-45 41 -308 0
307 -309 0
308 -309 0
-307 -308 309 0
306 -310 0
309 -310 0
-306 -309 310 0
310 -311 0
215 -311 0
-310 -215 311 0
6 312 0
-311 312 0
-6 311 -312 0
78 -313 0
303 -313 0
312 -313 0
-78 -303 -312 313 0
-38 -314 0
295 -314 0
313 -314 0
38 -295 -313 314 0
314 0

